
#insiemi
set T := 1 2 3 4;
set T1 := 1 2;

#parametri
param T1_num := 2;
param c := 5;
param cp := 7;
param cg := 8;
param perc := 100;
param prod_str_max := 500;
param domanda := 
1 10
2 12
3 29
4 249;

